NAME : E072-04f.237.tour
COMMENT : Cost = 0_237
COMMENT : Found by LKH [Keld Helsgaun] Wed Sep 13 12:59:17 2017
TYPE : TOUR
DIMENSION : 75
TOUR_SECTION
1
21
30
31
22
23
29
28
43
44
45
47
54
46
53
49
48
51
71
52
50
26
27
25
24
73
34
2
16
3
18
14
17
13
72
7
11
4
5
10
8
9
6
75
36
19
12
20
15
37
74
32
33
35
61
62
59
60
64
63
65
66
67
68
70
38
39
41
69
40
58
57
42
56
55
-1
EOF
